(declare-const x0 Real)
(assert (<= 0.400000 x0))
(declare-const x1 Real)
(assert (<= (- 4.0) x1))

(assert (<= 0.090000 (+ (* 0.490000 x1) (- (* x0 x1)))))

(minimize
	(+ (^ (- (- 0.490000 x0) (- 0.490000 x0)) 2.0) (^ (- (- 0.490000 x0) (- 0.490000 x0)) 2.0) (^ (- (- 0.480000 x0) (* (- 0.490000 x0) (exp (- (* 2.0 x1))))) 2.0) (^ (- (- 0.470000 x0) (* (- 0.490000 x0) (exp (- (* 2.0 x1))))) 2.0) (^ (- (- 0.480000 x0) (* (- 0.490000 x0) (exp (- (* 2.0 x1))))) 2.0) (^ (- (- 0.470000 x0) (* (- 0.490000 x0) (exp (- (* 2.0 x1))))) 2.0) (^ (- (- 0.460000 x0) (* (- 0.490000 x0) (exp (- (* 4.0 x1))))) 2.0) (^ (- (- 0.460000 x0) (* (- 0.490000 x0) (exp (- (* 4.0 x1))))) 2.0) (^ (- (- 0.450000 x0) (* (- 0.490000 x0) (exp (- (* 4.0 x1))))) 2.0) (^ (- (- 0.430000 x0) (* (- 0.490000 x0) (exp (- (* 4.0 x1))))) 2.0) (^ (- (- 0.450000 x0) (* (- 0.490000 x0) (exp (- (* 6.0 x1))))) 2.0) (^ (- (- 0.430000 x0) (* (- 0.490000 x0) (exp (- (* 6.0 x1))))) 2.0) (^ (- (- 0.430000 x0) (* (- 0.490000 x0) (exp (- (* 6.0 x1))))) 2.0) (^ (- (- 0.440000 x0) (* (- 0.490000 x0) (exp (- (* 8.0 x1))))) 2.0) (^ (- (- 0.430000 x0) (* (- 0.490000 x0) (exp (- (* 8.0 x1))))) 2.0) (^ (- (- 0.430000 x0) (* (- 0.490000 x0) (exp (- (* 8.0 x1))))) 2.0) (^ (- (- 0.460000 x0) (* (- 0.490000 x0) (exp (- (* 10.0 x1))))) 2.0) (^ (- (- 0.450000 x0) (* (- 0.490000 x0) (exp (- (* 10.0 x1))))) 2.0) (^ (- (- 0.420000 x0) (* (- 0.490000 x0) (exp (- (* 12.0 x1))))) 2.0) (^ (- (- 0.420000 x0) (* (- 0.490000 x0) (exp (- (* 12.0 x1))))) 2.0) (^ (- (- 0.430000 x0) (* (- 0.490000 x0) (exp (- (* 12.0 x1))))) 2.0) (^ (- (- 0.410000 x0) (* (- 0.490000 x0) (exp (- (* 14.0 x1))))) 2.0) (^ (- (- 0.410000 x0) (* (- 0.490000 x0) (exp (- (* 14.0 x1))))) 2.0) (^ (- (- 0.400000 x0) (* (- 0.490000 x0) (exp (- (* 14.0 x1))))) 2.0) (^ (- (- 0.420000 x0) (* (- 0.490000 x0) (exp (- (* 16.0 x1))))) 2.0) (^ (- (- 0.400000 x0) (* (- 0.490000 x0) (exp (- (* 16.0 x1))))) 2.0) (^ (- (- 0.400000 x0) (* (- 0.490000 x0) (exp (- (* 16.0 x1))))) 2.0) (^ (- (- 0.410000 x0) (* (- 0.490000 x0) (exp (- (* 18.0 x1))))) 2.0) (^ (- (- 0.400000 x0) (* (- 0.490000 x0) (exp (- (* 18.0 x1))))) 2.0) (^ (- (- 0.410000 x0) (* (- 0.490000 x0) (exp (- (* 18.0 x1))))) 2.0) (^ (- (- 0.410000 x0) (* (- 0.490000 x0) (exp (- (* 20.0 x1))))) 2.0) (^ (- (- 0.400000 x0) (* (- 0.490000 x0) (exp (- (* 20.0 x1))))) 2.0) (^ (- (- 0.400000 x0) (* (- 0.490000 x0) (exp (- (* 22.0 x1))))) 2.0) (^ (- (- 0.400000 x0) (* (- 0.490000 x0) (exp (- (* 22.0 x1))))) 2.0) (^ (- (- 0.380000 x0) (* (- 0.490000 x0) (exp (- (* 22.0 x1))))) 2.0) (^ (- (- 0.410000 x0) (* (- 0.490000 x0) (exp (- (* 24.0 x1))))) 2.0) (^ (- (- 0.400000 x0) (* (- 0.490000 x0) (exp (- (* 24.0 x1))))) 2.0) (^ (- (- 0.400000 x0) (* (- 0.490000 x0) (exp (- (* 26.0 x1))))) 2.0) (^ (- (- 0.410000 x0) (* (- 0.490000 x0) (exp (- (* 28.0 x1))))) 2.0) (^ (- (- 0.380000 x0) (* (- 0.490000 x0) (exp (- (* 28.0 x1))))) 2.0) (^ (- (- 0.400000 x0) (* (- 0.490000 x0) (exp (- (* 30.0 x1))))) 2.0) (^ (- (- 0.400000 x0) (* (- 0.490000 x0) (exp (- (* 30.0 x1))))) 2.0) (^ (- (- 0.390000 x0) (* (- 0.490000 x0) (exp (- (* 32.0 x1))))) 2.0) (^ (- (- 0.390000 x0) (* (- 0.490000 x0) (exp (- (* 34.0 x1))))) 2.0))
)
(check-sat)
(get-objectives)
(exit)

